187
0 89 9 137 21 26 28 46 154 79 
140 98 168 106 34 16 141 120 22 133 
86 155 19 107 97 85 115 126 35 109 
176 94 171 77 76 17 42 38 93 25 
139 161 11 74 110 78 170 146 111 7 
116 148 70 186 51 105 31 61 178 3 
174 27 135 136 24 14 157 50 112 182 
71 55 45 123 10 177 100 91 82 12 
37 49 20 99 156 181 53 90 124 47 
88 58 40 119 113 92 129 18 125 117 
130 185 29 72 101 160 81 179 62 43 
121 59 122 95 153 5 169 66 2 56 
118 73 23 131 67 128 150 84 172 13 
158 32 143 57 162 33 64 165 102 104 
167 103 52 144 138 96 15 183 152 75 
54 83 30 8 68 173 132 145 63 163 
147 142 6 1 108 180 127 80 41 159 
164 39 69 87 134 44 65 149 166 36 
4 114 184 151 175 48 60 
